sat
(:max-memory         18.52
 :memory             18.42
 :nlsat-arith-var    3
 :nlsat-atoms        11
 :nlsat-bool-var     1
 :nlsat-clauses      9
 :nlsat-conflicts    1
 :nlsat-propagations 12
 :nlsat-stages       5
 :num-allocs         74043
 :rlimit-count       3770
 :time               0.00
 :total-time         0.02)
